# Solution for model r10_t18_m7_6
# Finished Task: 18 / 18
# Makespan: 697.0, Total Distance: 1056.0, Total Time: 0.1776
# R O S F
0 0 26 0.0 0.0
1 1 13 0.0 0.0
2 2 18 0.0 0.0
3 3 16 0.0 0.0
4 4 12 0.0 0.0
5 5 27 0.0 0.0
6 6 23 0.0 0.0
7 7 25 0.0 0.0
8 8 -1 0.0 0.0
9 9 -1 0.0 0.0
10 2 -1 675.0 697.0
11 4 -1 612.0 645.0
12 4 24 130.0 155.0
13 1 14 487.0 515.0
14 1 19 544.0 573.0
15 0 -1 612.0 651.0
16 3 20 217.0 245.0
17 4 11 473.0 512.0
18 2 10 515.0 544.0
19 1 -1 651.0 675.0
20 3 -1 573.0 612.0
21 5 -1 513.0 543.0
22 7 -1 537.0 572.0
23 6 -1 532.0 555.0
24 4 17 319.0 354.0
25 7 22 354.0 386.0
26 0 15 454.0 487.0
27 5 21 365.0 397.0
